p cnf 30 130
1 2 3 0
4 5 6 0
7 8 9 0
10 11 12 0
13 14 15 0
16 17 18 0
19 20 21 0
22 23 24 0
25 26 27 0
28 29 30 0
-1 -2 0
-1 -3 0
-2 -3 0
-4 -5 0
-4 -6 0
-5 -6 0
-7 -8 0
-7 -9 0
-8 -9 0
-10 -11 0
-10 -12 0
-11 -12 0
-13 -14 0
-13 -15 0
-14 -15 0
-16 -17 0
-16 -18 0
-17 -18 0
-19 -20 0
-19 -21 0
-20 -21 0
-22 -23 0
-22 -24 0
-23 -24 0
-25 -26 0
-25 -27 0
-26 -27 0
-28 -29 0
-28 -30 0
-29 -30 0
-1 -4 0
-1 -10 0
-1 -19 0
-4 -1 0
-4 -7 0
-4 -13 0
-7 -4 0
-7 -13 0
-7 -28 0
-10 -1 0
-10 -25 0
-10 -28 0
-13 -4 0
-13 -7 0
-13 -22 0
-16 -22 0
-16 -25 0
-16 -28 0
-19 -1 0
-19 -22 0
-19 -25 0
-22 -13 0
-22 -16 0
-22 -19 0
-25 -10 0
-25 -16 0
-25 -19 0
-28 -7 0
-28 -10 0
-28 -16 0
-2 -5 0
-2 -11 0
-2 -20 0
-5 -2 0
-5 -8 0
-5 -14 0
-8 -5 0
-8 -14 0
-8 -29 0
-11 -2 0
-11 -26 0
-11 -29 0
-14 -5 0
-14 -8 0
-14 -23 0
-17 -23 0
-17 -26 0
-17 -29 0
-20 -2 0
-20 -23 0
-20 -26 0
-23 -14 0
-23 -17 0
-23 -20 0
-26 -11 0
-26 -17 0
-26 -20 0
-29 -8 0
-29 -11 0
-29 -17 0
-3 -6 0
-3 -12 0
-3 -21 0
-6 -3 0
-6 -9 0
-6 -15 0
-9 -6 0
-9 -15 0
-9 -30 0
-12 -3 0
-12 -27 0
-12 -30 0
-15 -6 0
-15 -9 0
-15 -24 0
-18 -24 0
-18 -27 0
-18 -30 0
-21 -3 0
-21 -24 0
-21 -27 0
-24 -15 0
-24 -18 0
-24 -21 0
-27 -12 0
-27 -18 0
-27 -21 0
-30 -9 0
-30 -12 0
-30 -18 0
